# 88237
param k := 6;
param n := 60;
param s := 1;
set E :=  (0,42) (0,43) (1,26) (1,42) (2,4) (2,20) (2,39) (2,50) (3,17) (3,33) (4,32) (4,37) (4,55) (5,14) (5,55) (6,44) (6,52) (7,48) (8,21) (8,29) (9,40) (9,57) (10,23) (10,29) (10,46) (11,30) (11,44) (12,13) (13,27) (13,48) (15,22) (15,59) (16,30) (16,35) (17,26) (18,22) (19,20) (20,43) (22,49) (23,31) (24,55) (25,40) (27,30) (28,29) (29,49) (31,34) (34,35) (35,58) (36,42) (37,47) (38,57) (39,57) (41,53) (42,45) (42,51) (44,45) (46,53) (46,56) (49,54) (51,57);